networks/zoo_42_336/zoo_42_336.sol
<?xml version = "1.0" encoding="UTF-8" standalone="yes"?>
<CPLEXSolution version="1.2">
 <header
   problemName="networks/zoo_42_336/zoo_42_336.lp"
   solutionName="incumbent"
   solutionIndex="-1"
   objectiveValue="24"
   solutionTypeValue="3"
   solutionTypeString="primal"
   solutionStatusValue="101"
   solutionStatusString="integer optimal solution"
   solutionMethodString="mip"
   primalFeasible="1"
   dualFeasible="1"
   MIPNodes="2393"
   MIPIterations="150779"
   writeLevel="3"/>
 <quality
   epInt="1.0000000000000001e-05"
   epRHS="9.9999999999999995e-07"
   maxIntInfeas="0"
   maxPrimalInfeas="0"
   maxX="4"
   maxSlack="10"/>
 <variables>
  <variable name="Y(9,12)" index="347" value="1"/>
  <variable name="Y(14,21)" index="566" value="1"/>
  <variable name="Y(23,10)" index="933" value="1"/>
  <variable name="Y(32,19)" index="1320" value="1"/>
  <variable name="Y(58,2)" index="2395" value="1"/>
  <variable name="Y(59,8)" index="2443" value="1"/>
  <variable name="Y(82,13)" index="3414" value="1"/>
  <variable name="Y(87,18)" index="3629" value="1"/>
  <variable name="Y(93,5)" index="3868" value="1"/>
  <variable name="Y(103,17)" index="4300" value="1"/>
  <variable name="Y(107,2)" index="4453" value="1"/>
  <variable name="Y(111,6)" index="4625" value="1"/>
  <variable name="Y(130,7)" index="5424" value="1"/>
  <variable name="Y(145,3)" index="6050" value="1"/>
  <variable name="Y(157,1)" index="6552" value="1"/>
  <variable name="Y(170,15)" index="7112" value="1"/>
  <variable name="Y(171,16)" index="7155" value="1"/>
  <variable name="Y(188,14)" index="7867" value="1"/>
  <variable name="Y(240,11)" index="10048" value="1"/>
  <variable name="Y(241,12)" index="10091" value="1"/>
  <variable name="Y(264,20)" index="11065" value="1"/>
  <variable name="Y(282,4)" index="11805" value="1"/>
  <variable name="Y(298,9)" index="12482" value="1"/>
  <variable name="Y(312,5)" index="13066" value="1"/>
  <variable name="X(1,17,103)" index="14214" value="1"/>
  <variable name="X(1,21,14)" index="14461" value="1"/>
  <variable name="X(1,22,157)" index="14940" value="1"/>
  <variable name="X(2,3,82)" index="15201" value="1"/>
  <variable name="X(2,4,282)" index="15737" value="1"/>
  <variable name="X(2,5,312)" index="16103" value="1"/>
  <variable name="X(2,7,58)" index="16185" value="1"/>
  <variable name="X(2,23,107)" index="16570" value="1"/>
  <variable name="X(3,2,312)" index="17111" value="1"/>
  <variable name="X(3,13,82)" index="17217" value="1"/>
  <variable name="X(3,21,32)" index="17503" value="1"/>
  <variable name="X(3,24,145)" index="17952" value="1"/>
  <variable name="X(4,2,58)" index="18201" value="1"/>
  <variable name="X(4,5,59)" index="18538" value="1"/>
  <variable name="X(4,25,282)" index="19097" value="1"/>
  <variable name="X(5,2,82)" index="19233" value="1"/>
  <variable name="X(5,4,93)" index="19580" value="1"/>
  <variable name="X(5,8,59)" index="19882" value="1"/>
  <variable name="X(5,26,312)" index="20471" value="1"/>
  <variable name="X(6,8,93)" index="20588" value="1"/>
  <variable name="X(6,27,111)" index="20942" value="1"/>
  <variable name="X(7,2,107)" index="21274" value="1"/>
  <variable name="X(7,8,111)" index="21614" value="1"/>
  <variable name="X(7,28,130)" index="21969" value="1"/>
  <variable name="X(8,5,93)" index="22268" value="1"/>
  <variable name="X(8,6,111)" index="22622" value="1"/>
  <variable name="X(8,7,130)" index="22977" value="1"/>
  <variable name="X(8,29,59)" index="23242" value="1"/>
  <variable name="X(9,10,23)" index="23542" value="1"/>
  <variable name="X(9,15,170)" index="24025" value="1"/>
  <variable name="X(9,30,298)" index="24489" value="1"/>
  <variable name="X(10,9,298)" index="24825" value="1"/>
  <variable name="X(10,11,171)" index="25034" value="1"/>
  <variable name="X(10,31,23)" index="25222" value="1"/>
  <variable name="X(11,10,298)" index="25833" value="1"/>
  <variable name="X(11,16,171)" index="26042" value="1"/>
  <variable name="X(11,18,87)" index="26294" value="1"/>
  <variable name="X(11,19,157)" index="26700" value="1"/>
  <variable name="X(11,32,240)" index="27119" value="1"/>
  <variable name="X(12,13,145)" index="27360" value="1"/>
  <variable name="X(12,14,9)" index="27560" value="1"/>
  <variable name="X(12,15,23)" index="27910" value="1"/>
  <variable name="X(12,20,264)" index="28487" value="1"/>
  <variable name="X(12,33,241)" index="28800" value="1"/>
  <variable name="X(13,3,145)" index="29040" value="1"/>
  <variable name="X(13,12,23)" index="29254" value="1"/>
  <variable name="X(13,34,82)" index="29649" value="1"/>
  <variable name="X(14,12,241)" index="30144" value="1"/>
  <variable name="X(14,15,240)" index="30479" value="1"/>
  <variable name="X(14,35,188)" index="30763" value="1"/>
  <variable name="X(15,9,23)" index="30934" value="1"/>
  <variable name="X(15,12,264)" index="31511" value="1"/>
  <variable name="X(15,14,188)" index="31771" value="1"/>
  <variable name="X(15,16,240)" index="32159" value="1"/>
  <variable name="X(15,36,170)" index="32425" value="1"/>
  <variable name="X(16,11,240)" index="32831" value="1"/>
  <variable name="X(16,15,188)" index="33115" value="1"/>
  <variable name="X(16,37,171)" index="33434" value="1"/>
  <variable name="X(17,1,157)" index="33756" value="1"/>
  <variable name="X(17,20,9)" index="33944" value="1"/>
  <variable name="X(17,38,103)" index="34374" value="1"/>
  <variable name="X(18,11,298)" index="34905" value="1"/>
  <variable name="X(18,39,87)" index="35030" value="1"/>
  <variable name="X(19,11,87)" index="35366" value="1"/>
  <variable name="X(19,20,157)" index="35772" value="1"/>
  <variable name="X(19,40,32)" index="35983" value="1"/>
  <variable name="X(20,12,9)" index="36296" value="1"/>
  <variable name="X(20,17,157)" index="36780" value="1"/>
  <variable name="X(20,19,32)" index="36991" value="1"/>
  <variable name="X(20,21,312)" index="37607" value="1"/>
  <variable name="X(20,41,264)" index="37895" value="1"/>
  <variable name="X(21,1,103)" index="38070" value="1"/>
  <variable name="X(21,3,312)" index="38615" value="1"/>
  <variable name="X(21,20,32)" index="38671" value="1"/>
  <variable name="X(21,42,14)" index="38989" value="1"/>
  <variable name="C(9,20)" index="39352" value="1"/>
  <variable name="C(9,12)" index="39353" value="2"/>
  <variable name="C(14,21)" index="39372" value="1"/>
  <variable name="C(23,12)" index="39401" value="1"/>
  <variable name="C(23,15)" index="39402" value="2"/>
  <variable name="C(23,9)" index="39403" value="3"/>
  <variable name="C(23,10)" index="39404" value="4"/>
  <variable name="C(32,21)" index="39448" value="1"/>
  <variable name="C(32,20)" index="39449" value="2"/>
  <variable name="C(32,19)" index="39450" value="3"/>
  <variable name="C(58,2)" index="39541" value="1"/>
  <variable name="C(59,5)" index="39544" value="1"/>
  <variable name="C(59,8)" index="39545" value="2"/>
  <variable name="C(82,2)" index="39657" value="1"/>
  <variable name="C(82,3)" index="39658" value="2"/>
  <variable name="C(82,13)" index="39659" value="3"/>
  <variable name="C(87,11)" index="39691" value="1"/>
  <variable name="C(87,18)" index="39692" value="2"/>
  <variable name="C(93,8)" index="39719" value="1"/>
  <variable name="C(93,5)" index="39720" value="2"/>
  <variable name="C(103,1)" index="39789" value="1"/>
  <variable name="C(103,17)" index="39790" value="2"/>
  <variable name="C(107,2)" index="39810" value="1"/>
  <variable name="C(111,8)" index="39821" value="1"/>
  <variable name="C(111,6)" index="39822" value="2"/>
  <variable name="C(130,7)" index="39911" value="1"/>
  <variable name="C(145,13)" index="40013" value="1"/>
  <variable name="C(145,3)" index="40014" value="2"/>
  <variable name="C(157,19)" index="40067" value="1"/>
  <variable name="C(157,20)" index="40068" value="2"/>
  <variable name="C(157,17)" index="40069" value="3"/>
  <variable name="C(157,1)" index="40070" value="4"/>
  <variable name="C(170,15)" index="40146" value="1"/>
  <variable name="C(171,11)" index="40148" value="1"/>
  <variable name="C(171,16)" index="40149" value="2"/>
  <variable name="C(188,15)" index="40238" value="1"/>
  <variable name="C(188,14)" index="40239" value="2"/>
  <variable name="C(240,15)" index="40439" value="1"/>
  <variable name="C(240,16)" index="40440" value="2"/>
  <variable name="C(240,11)" index="40441" value="3"/>
  <variable name="C(241,12)" index="40443" value="1"/>
  <variable name="C(264,12)" index="40533" value="1"/>
  <variable name="C(264,20)" index="40534" value="2"/>
  <variable name="C(282,4)" index="40622" value="1"/>
  <variable name="C(298,11)" index="40713" value="1"/>
  <variable name="C(298,10)" index="40714" value="2"/>
  <variable name="C(298,9)" index="40715" value="3"/>
  <variable name="C(312,21)" index="40771" value="1"/>
  <variable name="C(312,3)" index="40772" value="2"/>
  <variable name="C(312,2)" index="40773" value="3"/>
  <variable name="C(312,5)" index="40774" value="4"/>
 </variables>
</CPLEXSolution>
